N = 5;
H = 6;
T = 2;

avail = array3d(1..N, 1..H, 1..T, [0, 5, 9, 7, 2, 1, 6, 0, 0, 3, 7, 8, 4, 7, 5, 3, 2, 1, 2, 1, 4, 3, 10, 6, 8, 9, 3, 2, 2, 5, 1, 4, 10, 0, 4, 7, 5, 4, 3, 9, 8, 6, 3, 0, 2, 0, 10, 10, 3, 3, 3, 2, 6, 0, 10, 8, 5, 9, 5, 9]);

r = array2d(1..H, 1..T, [0, 1, 1, 1, 2, 0, 1, 1, 1, 0, 2, 0]);
